SPECK/SPECK32/Model4/1.lp
Minimize
xobj


Subject To
L8_r1 + R15_r1 + L15_r2 <= 2
L8_r1 + R15_r1 + L15_r2 - 2 xor_dummy0_L8_r1_R15_r1_L15_r2 >= 0
xor_dummy0_L8_r1_R15_r1_L15_r2 - L8_r1 >= 0
xor_dummy0_L8_r1_R15_r1_L15_r2 - R15_r1 >= 0
xor_dummy0_L8_r1_R15_r1_L15_r2 - L15_r2 >= 0
-1 L10_r1 + 1 R1_r1 + 0 L1_r2 + 0 L9_r1 + 0 R0_r1 + 0 L0_r2 + 1 S1_r1 >= 0
0 L10_r1 - 1 R1_r1 + 1 L1_r2 + 0 L9_r1 + 0 R0_r1 + 0 L0_r2 + 1 S1_r1 >= 0
1 L10_r1 + 0 R1_r1 - 1 L1_r2 + 0 L9_r1 + 0 R0_r1 + 0 L0_r2 + 1 S1_r1 >= 0
1 L10_r1 + 1 R1_r1 + 1 L1_r2 + 0 L9_r1 + 0 R0_r1 + 0 L0_r2 - 1 S1_r1 >= 0
-1 L10_r1 - 1 R1_r1 - 1 L1_r2 + 0 L9_r1 + 0 R0_r1 + 0 L0_r2 - 1 S1_r1 >= - 3
0 L10_r1 + 0 R1_r1 + 1 L1_r2 + 1 L9_r1 + 1 R0_r1 - 1 L0_r2 + 1 S1_r1 >= 0
-1 L10_r1 - 1 R1_r1 - 1 L1_r2 + 3 L9_r1 + 3 R0_r1 + 3 L0_r2 + 2 S1_r1 >= 0
1 L10_r1 + 1 R1_r1 + 1 L1_r2 - 3 L9_r1 - 3 R0_r1 - 3 L0_r2 + 2 S1_r1 >= - 6
0 L10_r1 - 1 R1_r1 + 0 L1_r2 + 1 L9_r1 - 1 R0_r1 - 1 L0_r2 + 1 S1_r1 >= - 2
0 L10_r1 + 0 R1_r1 + 1 L1_r2 + 1 L9_r1 - 1 R0_r1 + 1 L0_r2 + 1 S1_r1 >= 0
-1 L10_r1 - 1 R1_r1 - 1 L1_r2 - 3 L9_r1 + 3 R0_r1 - 3 L0_r2 + 2 S1_r1 >= - 6
-1 L10_r1 + 0 R1_r1 + 0 L1_r2 - 1 L9_r1 - 1 R0_r1 + 1 L0_r2 + 1 S1_r1 >= - 2
1 L10_r1 + 1 R1_r1 + 1 L1_r2 - 3 L9_r1 + 3 R0_r1 + 3 L0_r2 + 2 S1_r1 >= 0
-1 L11_r1 + 1 R2_r1 + 0 L2_r2 + 0 L10_r1 + 0 R1_r1 + 0 L1_r2 + 1 S2_r1 >= 0
0 L11_r1 - 1 R2_r1 + 1 L2_r2 + 0 L10_r1 + 0 R1_r1 + 0 L1_r2 + 1 S2_r1 >= 0
1 L11_r1 + 0 R2_r1 - 1 L2_r2 + 0 L10_r1 + 0 R1_r1 + 0 L1_r2 + 1 S2_r1 >= 0
1 L11_r1 + 1 R2_r1 + 1 L2_r2 + 0 L10_r1 + 0 R1_r1 + 0 L1_r2 - 1 S2_r1 >= 0
-1 L11_r1 - 1 R2_r1 - 1 L2_r2 + 0 L10_r1 + 0 R1_r1 + 0 L1_r2 - 1 S2_r1 >= - 3
0 L11_r1 + 0 R2_r1 + 1 L2_r2 + 1 L10_r1 + 1 R1_r1 - 1 L1_r2 + 1 S2_r1 >= 0
-1 L11_r1 - 1 R2_r1 - 1 L2_r2 + 3 L10_r1 + 3 R1_r1 + 3 L1_r2 + 2 S2_r1 >= 0
1 L11_r1 + 1 R2_r1 + 1 L2_r2 - 3 L10_r1 - 3 R1_r1 - 3 L1_r2 + 2 S2_r1 >= - 6
0 L11_r1 - 1 R2_r1 + 0 L2_r2 + 1 L10_r1 - 1 R1_r1 - 1 L1_r2 + 1 S2_r1 >= - 2
0 L11_r1 + 0 R2_r1 + 1 L2_r2 + 1 L10_r1 - 1 R1_r1 + 1 L1_r2 + 1 S2_r1 >= 0
-1 L11_r1 - 1 R2_r1 - 1 L2_r2 - 3 L10_r1 + 3 R1_r1 - 3 L1_r2 + 2 S2_r1 >= - 6
-1 L11_r1 + 0 R2_r1 + 0 L2_r2 - 1 L10_r1 - 1 R1_r1 + 1 L1_r2 + 1 S2_r1 >= - 2
1 L11_r1 + 1 R2_r1 + 1 L2_r2 - 3 L10_r1 + 3 R1_r1 + 3 L1_r2 + 2 S2_r1 >= 0
-1 L12_r1 + 1 R3_r1 + 0 L3_r2 + 0 L11_r1 + 0 R2_r1 + 0 L2_r2 + 1 S3_r1 >= 0
0 L12_r1 - 1 R3_r1 + 1 L3_r2 + 0 L11_r1 + 0 R2_r1 + 0 L2_r2 + 1 S3_r1 >= 0
1 L12_r1 + 0 R3_r1 - 1 L3_r2 + 0 L11_r1 + 0 R2_r1 + 0 L2_r2 + 1 S3_r1 >= 0
1 L12_r1 + 1 R3_r1 + 1 L3_r2 + 0 L11_r1 + 0 R2_r1 + 0 L2_r2 - 1 S3_r1 >= 0
-1 L12_r1 - 1 R3_r1 - 1 L3_r2 + 0 L11_r1 + 0 R2_r1 + 0 L2_r2 - 1 S3_r1 >= - 3
0 L12_r1 + 0 R3_r1 + 1 L3_r2 + 1 L11_r1 + 1 R2_r1 - 1 L2_r2 + 1 S3_r1 >= 0
-1 L12_r1 - 1 R3_r1 - 1 L3_r2 + 3 L11_r1 + 3 R2_r1 + 3 L2_r2 + 2 S3_r1 >= 0
1 L12_r1 + 1 R3_r1 + 1 L3_r2 - 3 L11_r1 - 3 R2_r1 - 3 L2_r2 + 2 S3_r1 >= - 6
0 L12_r1 - 1 R3_r1 + 0 L3_r2 + 1 L11_r1 - 1 R2_r1 - 1 L2_r2 + 1 S3_r1 >= - 2
0 L12_r1 + 0 R3_r1 + 1 L3_r2 + 1 L11_r1 - 1 R2_r1 + 1 L2_r2 + 1 S3_r1 >= 0
-1 L12_r1 - 1 R3_r1 - 1 L3_r2 - 3 L11_r1 + 3 R2_r1 - 3 L2_r2 + 2 S3_r1 >= - 6
-1 L12_r1 + 0 R3_r1 + 0 L3_r2 - 1 L11_r1 - 1 R2_r1 + 1 L2_r2 + 1 S3_r1 >= - 2
1 L12_r1 + 1 R3_r1 + 1 L3_r2 - 3 L11_r1 + 3 R2_r1 + 3 L2_r2 + 2 S3_r1 >= 0
-1 L13_r1 + 1 R4_r1 + 0 L4_r2 + 0 L12_r1 + 0 R3_r1 + 0 L3_r2 + 1 S4_r1 >= 0
0 L13_r1 - 1 R4_r1 + 1 L4_r2 + 0 L12_r1 + 0 R3_r1 + 0 L3_r2 + 1 S4_r1 >= 0
1 L13_r1 + 0 R4_r1 - 1 L4_r2 + 0 L12_r1 + 0 R3_r1 + 0 L3_r2 + 1 S4_r1 >= 0
1 L13_r1 + 1 R4_r1 + 1 L4_r2 + 0 L12_r1 + 0 R3_r1 + 0 L3_r2 - 1 S4_r1 >= 0
-1 L13_r1 - 1 R4_r1 - 1 L4_r2 + 0 L12_r1 + 0 R3_r1 + 0 L3_r2 - 1 S4_r1 >= - 3
0 L13_r1 + 0 R4_r1 + 1 L4_r2 + 1 L12_r1 + 1 R3_r1 - 1 L3_r2 + 1 S4_r1 >= 0
-1 L13_r1 - 1 R4_r1 - 1 L4_r2 + 3 L12_r1 + 3 R3_r1 + 3 L3_r2 + 2 S4_r1 >= 0
1 L13_r1 + 1 R4_r1 + 1 L4_r2 - 3 L12_r1 - 3 R3_r1 - 3 L3_r2 + 2 S4_r1 >= - 6
0 L13_r1 - 1 R4_r1 + 0 L4_r2 + 1 L12_r1 - 1 R3_r1 - 1 L3_r2 + 1 S4_r1 >= - 2
0 L13_r1 + 0 R4_r1 + 1 L4_r2 + 1 L12_r1 - 1 R3_r1 + 1 L3_r2 + 1 S4_r1 >= 0
-1 L13_r1 - 1 R4_r1 - 1 L4_r2 - 3 L12_r1 + 3 R3_r1 - 3 L3_r2 + 2 S4_r1 >= - 6
-1 L13_r1 + 0 R4_r1 + 0 L4_r2 - 1 L12_r1 - 1 R3_r1 + 1 L3_r2 + 1 S4_r1 >= - 2
1 L13_r1 + 1 R4_r1 + 1 L4_r2 - 3 L12_r1 + 3 R3_r1 + 3 L3_r2 + 2 S4_r1 >= 0
-1 L14_r1 + 1 R5_r1 + 0 L5_r2 + 0 L13_r1 + 0 R4_r1 + 0 L4_r2 + 1 S5_r1 >= 0
0 L14_r1 - 1 R5_r1 + 1 L5_r2 + 0 L13_r1 + 0 R4_r1 + 0 L4_r2 + 1 S5_r1 >= 0
1 L14_r1 + 0 R5_r1 - 1 L5_r2 + 0 L13_r1 + 0 R4_r1 + 0 L4_r2 + 1 S5_r1 >= 0
1 L14_r1 + 1 R5_r1 + 1 L5_r2 + 0 L13_r1 + 0 R4_r1 + 0 L4_r2 - 1 S5_r1 >= 0
-1 L14_r1 - 1 R5_r1 - 1 L5_r2 + 0 L13_r1 + 0 R4_r1 + 0 L4_r2 - 1 S5_r1 >= - 3
0 L14_r1 + 0 R5_r1 + 1 L5_r2 + 1 L13_r1 + 1 R4_r1 - 1 L4_r2 + 1 S5_r1 >= 0
-1 L14_r1 - 1 R5_r1 - 1 L5_r2 + 3 L13_r1 + 3 R4_r1 + 3 L4_r2 + 2 S5_r1 >= 0
1 L14_r1 + 1 R5_r1 + 1 L5_r2 - 3 L13_r1 - 3 R4_r1 - 3 L4_r2 + 2 S5_r1 >= - 6
0 L14_r1 - 1 R5_r1 + 0 L5_r2 + 1 L13_r1 - 1 R4_r1 - 1 L4_r2 + 1 S5_r1 >= - 2
0 L14_r1 + 0 R5_r1 + 1 L5_r2 + 1 L13_r1 - 1 R4_r1 + 1 L4_r2 + 1 S5_r1 >= 0
-1 L14_r1 - 1 R5_r1 - 1 L5_r2 - 3 L13_r1 + 3 R4_r1 - 3 L4_r2 + 2 S5_r1 >= - 6
-1 L14_r1 + 0 R5_r1 + 0 L5_r2 - 1 L13_r1 - 1 R4_r1 + 1 L4_r2 + 1 S5_r1 >= - 2
1 L14_r1 + 1 R5_r1 + 1 L5_r2 - 3 L13_r1 + 3 R4_r1 + 3 L4_r2 + 2 S5_r1 >= 0
-1 L15_r1 + 1 R6_r1 + 0 L6_r2 + 0 L14_r1 + 0 R5_r1 + 0 L5_r2 + 1 S6_r1 >= 0
0 L15_r1 - 1 R6_r1 + 1 L6_r2 + 0 L14_r1 + 0 R5_r1 + 0 L5_r2 + 1 S6_r1 >= 0
1 L15_r1 + 0 R6_r1 - 1 L6_r2 + 0 L14_r1 + 0 R5_r1 + 0 L5_r2 + 1 S6_r1 >= 0
1 L15_r1 + 1 R6_r1 + 1 L6_r2 + 0 L14_r1 + 0 R5_r1 + 0 L5_r2 - 1 S6_r1 >= 0
-1 L15_r1 - 1 R6_r1 - 1 L6_r2 + 0 L14_r1 + 0 R5_r1 + 0 L5_r2 - 1 S6_r1 >= - 3
0 L15_r1 + 0 R6_r1 + 1 L6_r2 + 1 L14_r1 + 1 R5_r1 - 1 L5_r2 + 1 S6_r1 >= 0
-1 L15_r1 - 1 R6_r1 - 1 L6_r2 + 3 L14_r1 + 3 R5_r1 + 3 L5_r2 + 2 S6_r1 >= 0
1 L15_r1 + 1 R6_r1 + 1 L6_r2 - 3 L14_r1 - 3 R5_r1 - 3 L5_r2 + 2 S6_r1 >= - 6
0 L15_r1 - 1 R6_r1 + 0 L6_r2 + 1 L14_r1 - 1 R5_r1 - 1 L5_r2 + 1 S6_r1 >= - 2
0 L15_r1 + 0 R6_r1 + 1 L6_r2 + 1 L14_r1 - 1 R5_r1 + 1 L5_r2 + 1 S6_r1 >= 0
-1 L15_r1 - 1 R6_r1 - 1 L6_r2 - 3 L14_r1 + 3 R5_r1 - 3 L5_r2 + 2 S6_r1 >= - 6
-1 L15_r1 + 0 R6_r1 + 0 L6_r2 - 1 L14_r1 - 1 R5_r1 + 1 L5_r2 + 1 S6_r1 >= - 2
1 L15_r1 + 1 R6_r1 + 1 L6_r2 - 3 L14_r1 + 3 R5_r1 + 3 L5_r2 + 2 S6_r1 >= 0
-1 L0_r1 + 1 R7_r1 + 0 L7_r2 + 0 L15_r1 + 0 R6_r1 + 0 L6_r2 + 1 S7_r1 >= 0
0 L0_r1 - 1 R7_r1 + 1 L7_r2 + 0 L15_r1 + 0 R6_r1 + 0 L6_r2 + 1 S7_r1 >= 0
1 L0_r1 + 0 R7_r1 - 1 L7_r2 + 0 L15_r1 + 0 R6_r1 + 0 L6_r2 + 1 S7_r1 >= 0
1 L0_r1 + 1 R7_r1 + 1 L7_r2 + 0 L15_r1 + 0 R6_r1 + 0 L6_r2 - 1 S7_r1 >= 0
-1 L0_r1 - 1 R7_r1 - 1 L7_r2 + 0 L15_r1 + 0 R6_r1 + 0 L6_r2 - 1 S7_r1 >= - 3
0 L0_r1 + 0 R7_r1 + 1 L7_r2 + 1 L15_r1 + 1 R6_r1 - 1 L6_r2 + 1 S7_r1 >= 0
-1 L0_r1 - 1 R7_r1 - 1 L7_r2 + 3 L15_r1 + 3 R6_r1 + 3 L6_r2 + 2 S7_r1 >= 0
1 L0_r1 + 1 R7_r1 + 1 L7_r2 - 3 L15_r1 - 3 R6_r1 - 3 L6_r2 + 2 S7_r1 >= - 6
0 L0_r1 - 1 R7_r1 + 0 L7_r2 + 1 L15_r1 - 1 R6_r1 - 1 L6_r2 + 1 S7_r1 >= - 2
0 L0_r1 + 0 R7_r1 + 1 L7_r2 + 1 L15_r1 - 1 R6_r1 + 1 L6_r2 + 1 S7_r1 >= 0
-1 L0_r1 - 1 R7_r1 - 1 L7_r2 - 3 L15_r1 + 3 R6_r1 - 3 L6_r2 + 2 S7_r1 >= - 6
-1 L0_r1 + 0 R7_r1 + 0 L7_r2 - 1 L15_r1 - 1 R6_r1 + 1 L6_r2 + 1 S7_r1 >= - 2
1 L0_r1 + 1 R7_r1 + 1 L7_r2 - 3 L15_r1 + 3 R6_r1 + 3 L6_r2 + 2 S7_r1 >= 0
-1 L1_r1 + 1 R8_r1 + 0 L8_r2 + 0 L0_r1 + 0 R7_r1 + 0 L7_r2 + 1 S8_r1 >= 0
0 L1_r1 - 1 R8_r1 + 1 L8_r2 + 0 L0_r1 + 0 R7_r1 + 0 L7_r2 + 1 S8_r1 >= 0
1 L1_r1 + 0 R8_r1 - 1 L8_r2 + 0 L0_r1 + 0 R7_r1 + 0 L7_r2 + 1 S8_r1 >= 0
1 L1_r1 + 1 R8_r1 + 1 L8_r2 + 0 L0_r1 + 0 R7_r1 + 0 L7_r2 - 1 S8_r1 >= 0
-1 L1_r1 - 1 R8_r1 - 1 L8_r2 + 0 L0_r1 + 0 R7_r1 + 0 L7_r2 - 1 S8_r1 >= - 3
0 L1_r1 + 0 R8_r1 + 1 L8_r2 + 1 L0_r1 + 1 R7_r1 - 1 L7_r2 + 1 S8_r1 >= 0
-1 L1_r1 - 1 R8_r1 - 1 L8_r2 + 3 L0_r1 + 3 R7_r1 + 3 L7_r2 + 2 S8_r1 >= 0
1 L1_r1 + 1 R8_r1 + 1 L8_r2 - 3 L0_r1 - 3 R7_r1 - 3 L7_r2 + 2 S8_r1 >= - 6
0 L1_r1 - 1 R8_r1 + 0 L8_r2 + 1 L0_r1 - 1 R7_r1 - 1 L7_r2 + 1 S8_r1 >= - 2
0 L1_r1 + 0 R8_r1 + 1 L8_r2 + 1 L0_r1 - 1 R7_r1 + 1 L7_r2 + 1 S8_r1 >= 0
-1 L1_r1 - 1 R8_r1 - 1 L8_r2 - 3 L0_r1 + 3 R7_r1 - 3 L7_r2 + 2 S8_r1 >= - 6
-1 L1_r1 + 0 R8_r1 + 0 L8_r2 - 1 L0_r1 - 1 R7_r1 + 1 L7_r2 + 1 S8_r1 >= - 2
1 L1_r1 + 1 R8_r1 + 1 L8_r2 - 3 L0_r1 + 3 R7_r1 + 3 L7_r2 + 2 S8_r1 >= 0
-1 L2_r1 + 1 R9_r1 + 0 L9_r2 + 0 L1_r1 + 0 R8_r1 + 0 L8_r2 + 1 S9_r1 >= 0
0 L2_r1 - 1 R9_r1 + 1 L9_r2 + 0 L1_r1 + 0 R8_r1 + 0 L8_r2 + 1 S9_r1 >= 0
1 L2_r1 + 0 R9_r1 - 1 L9_r2 + 0 L1_r1 + 0 R8_r1 + 0 L8_r2 + 1 S9_r1 >= 0
1 L2_r1 + 1 R9_r1 + 1 L9_r2 + 0 L1_r1 + 0 R8_r1 + 0 L8_r2 - 1 S9_r1 >= 0
-1 L2_r1 - 1 R9_r1 - 1 L9_r2 + 0 L1_r1 + 0 R8_r1 + 0 L8_r2 - 1 S9_r1 >= - 3
0 L2_r1 + 0 R9_r1 + 1 L9_r2 + 1 L1_r1 + 1 R8_r1 - 1 L8_r2 + 1 S9_r1 >= 0
-1 L2_r1 - 1 R9_r1 - 1 L9_r2 + 3 L1_r1 + 3 R8_r1 + 3 L8_r2 + 2 S9_r1 >= 0
1 L2_r1 + 1 R9_r1 + 1 L9_r2 - 3 L1_r1 - 3 R8_r1 - 3 L8_r2 + 2 S9_r1 >= - 6
0 L2_r1 - 1 R9_r1 + 0 L9_r2 + 1 L1_r1 - 1 R8_r1 - 1 L8_r2 + 1 S9_r1 >= - 2
0 L2_r1 + 0 R9_r1 + 1 L9_r2 + 1 L1_r1 - 1 R8_r1 + 1 L8_r2 + 1 S9_r1 >= 0
-1 L2_r1 - 1 R9_r1 - 1 L9_r2 - 3 L1_r1 + 3 R8_r1 - 3 L8_r2 + 2 S9_r1 >= - 6
-1 L2_r1 + 0 R9_r1 + 0 L9_r2 - 1 L1_r1 - 1 R8_r1 + 1 L8_r2 + 1 S9_r1 >= - 2
1 L2_r1 + 1 R9_r1 + 1 L9_r2 - 3 L1_r1 + 3 R8_r1 + 3 L8_r2 + 2 S9_r1 >= 0
-1 L3_r1 + 1 R10_r1 + 0 L10_r2 + 0 L2_r1 + 0 R9_r1 + 0 L9_r2 + 1 S10_r1 >= 0
0 L3_r1 - 1 R10_r1 + 1 L10_r2 + 0 L2_r1 + 0 R9_r1 + 0 L9_r2 + 1 S10_r1 >= 0
1 L3_r1 + 0 R10_r1 - 1 L10_r2 + 0 L2_r1 + 0 R9_r1 + 0 L9_r2 + 1 S10_r1 >= 0
1 L3_r1 + 1 R10_r1 + 1 L10_r2 + 0 L2_r1 + 0 R9_r1 + 0 L9_r2 - 1 S10_r1 >= 0
-1 L3_r1 - 1 R10_r1 - 1 L10_r2 + 0 L2_r1 + 0 R9_r1 + 0 L9_r2 - 1 S10_r1 >= - 3
0 L3_r1 + 0 R10_r1 + 1 L10_r2 + 1 L2_r1 + 1 R9_r1 - 1 L9_r2 + 1 S10_r1 >= 0
-1 L3_r1 - 1 R10_r1 - 1 L10_r2 + 3 L2_r1 + 3 R9_r1 + 3 L9_r2 + 2 S10_r1 >= 0
1 L3_r1 + 1 R10_r1 + 1 L10_r2 - 3 L2_r1 - 3 R9_r1 - 3 L9_r2 + 2 S10_r1 >= - 6
0 L3_r1 - 1 R10_r1 + 0 L10_r2 + 1 L2_r1 - 1 R9_r1 - 1 L9_r2 + 1 S10_r1 >= - 2
0 L3_r1 + 0 R10_r1 + 1 L10_r2 + 1 L2_r1 - 1 R9_r1 + 1 L9_r2 + 1 S10_r1 >= 0
-1 L3_r1 - 1 R10_r1 - 1 L10_r2 - 3 L2_r1 + 3 R9_r1 - 3 L9_r2 + 2 S10_r1 >= - 6
-1 L3_r1 + 0 R10_r1 + 0 L10_r2 - 1 L2_r1 - 1 R9_r1 + 1 L9_r2 + 1 S10_r1 >= - 2
1 L3_r1 + 1 R10_r1 + 1 L10_r2 - 3 L2_r1 + 3 R9_r1 + 3 L9_r2 + 2 S10_r1 >= 0
-1 L4_r1 + 1 R11_r1 + 0 L11_r2 + 0 L3_r1 + 0 R10_r1 + 0 L10_r2 + 1 S11_r1 >= 0
0 L4_r1 - 1 R11_r1 + 1 L11_r2 + 0 L3_r1 + 0 R10_r1 + 0 L10_r2 + 1 S11_r1 >= 0
1 L4_r1 + 0 R11_r1 - 1 L11_r2 + 0 L3_r1 + 0 R10_r1 + 0 L10_r2 + 1 S11_r1 >= 0
1 L4_r1 + 1 R11_r1 + 1 L11_r2 + 0 L3_r1 + 0 R10_r1 + 0 L10_r2 - 1 S11_r1 >= 0
-1 L4_r1 - 1 R11_r1 - 1 L11_r2 + 0 L3_r1 + 0 R10_r1 + 0 L10_r2 - 1 S11_r1 >= - 3
0 L4_r1 + 0 R11_r1 + 1 L11_r2 + 1 L3_r1 + 1 R10_r1 - 1 L10_r2 + 1 S11_r1 >= 0
-1 L4_r1 - 1 R11_r1 - 1 L11_r2 + 3 L3_r1 + 3 R10_r1 + 3 L10_r2 + 2 S11_r1 >= 0
1 L4_r1 + 1 R11_r1 + 1 L11_r2 - 3 L3_r1 - 3 R10_r1 - 3 L10_r2 + 2 S11_r1 >= - 6
0 L4_r1 - 1 R11_r1 + 0 L11_r2 + 1 L3_r1 - 1 R10_r1 - 1 L10_r2 + 1 S11_r1 >= - 2
0 L4_r1 + 0 R11_r1 + 1 L11_r2 + 1 L3_r1 - 1 R10_r1 + 1 L10_r2 + 1 S11_r1 >= 0
-1 L4_r1 - 1 R11_r1 - 1 L11_r2 - 3 L3_r1 + 3 R10_r1 - 3 L10_r2 + 2 S11_r1 >= - 6
-1 L4_r1 + 0 R11_r1 + 0 L11_r2 - 1 L3_r1 - 1 R10_r1 + 1 L10_r2 + 1 S11_r1 >= - 2
1 L4_r1 + 1 R11_r1 + 1 L11_r2 - 3 L3_r1 + 3 R10_r1 + 3 L10_r2 + 2 S11_r1 >= 0
-1 L5_r1 + 1 R12_r1 + 0 L12_r2 + 0 L4_r1 + 0 R11_r1 + 0 L11_r2 + 1 S12_r1 >= 0
0 L5_r1 - 1 R12_r1 + 1 L12_r2 + 0 L4_r1 + 0 R11_r1 + 0 L11_r2 + 1 S12_r1 >= 0
1 L5_r1 + 0 R12_r1 - 1 L12_r2 + 0 L4_r1 + 0 R11_r1 + 0 L11_r2 + 1 S12_r1 >= 0
1 L5_r1 + 1 R12_r1 + 1 L12_r2 + 0 L4_r1 + 0 R11_r1 + 0 L11_r2 - 1 S12_r1 >= 0
-1 L5_r1 - 1 R12_r1 - 1 L12_r2 + 0 L4_r1 + 0 R11_r1 + 0 L11_r2 - 1 S12_r1 >= - 3
0 L5_r1 + 0 R12_r1 + 1 L12_r2 + 1 L4_r1 + 1 R11_r1 - 1 L11_r2 + 1 S12_r1 >= 0
-1 L5_r1 - 1 R12_r1 - 1 L12_r2 + 3 L4_r1 + 3 R11_r1 + 3 L11_r2 + 2 S12_r1 >= 0
1 L5_r1 + 1 R12_r1 + 1 L12_r2 - 3 L4_r1 - 3 R11_r1 - 3 L11_r2 + 2 S12_r1 >= - 6
0 L5_r1 - 1 R12_r1 + 0 L12_r2 + 1 L4_r1 - 1 R11_r1 - 1 L11_r2 + 1 S12_r1 >= - 2
0 L5_r1 + 0 R12_r1 + 1 L12_r2 + 1 L4_r1 - 1 R11_r1 + 1 L11_r2 + 1 S12_r1 >= 0
-1 L5_r1 - 1 R12_r1 - 1 L12_r2 - 3 L4_r1 + 3 R11_r1 - 3 L11_r2 + 2 S12_r1 >= - 6
-1 L5_r1 + 0 R12_r1 + 0 L12_r2 - 1 L4_r1 - 1 R11_r1 + 1 L11_r2 + 1 S12_r1 >= - 2
1 L5_r1 + 1 R12_r1 + 1 L12_r2 - 3 L4_r1 + 3 R11_r1 + 3 L11_r2 + 2 S12_r1 >= 0
-1 L6_r1 + 1 R13_r1 + 0 L13_r2 + 0 L5_r1 + 0 R12_r1 + 0 L12_r2 + 1 S13_r1 >= 0
0 L6_r1 - 1 R13_r1 + 1 L13_r2 + 0 L5_r1 + 0 R12_r1 + 0 L12_r2 + 1 S13_r1 >= 0
1 L6_r1 + 0 R13_r1 - 1 L13_r2 + 0 L5_r1 + 0 R12_r1 + 0 L12_r2 + 1 S13_r1 >= 0
1 L6_r1 + 1 R13_r1 + 1 L13_r2 + 0 L5_r1 + 0 R12_r1 + 0 L12_r2 - 1 S13_r1 >= 0
-1 L6_r1 - 1 R13_r1 - 1 L13_r2 + 0 L5_r1 + 0 R12_r1 + 0 L12_r2 - 1 S13_r1 >= - 3
0 L6_r1 + 0 R13_r1 + 1 L13_r2 + 1 L5_r1 + 1 R12_r1 - 1 L12_r2 + 1 S13_r1 >= 0
-1 L6_r1 - 1 R13_r1 - 1 L13_r2 + 3 L5_r1 + 3 R12_r1 + 3 L12_r2 + 2 S13_r1 >= 0
1 L6_r1 + 1 R13_r1 + 1 L13_r2 - 3 L5_r1 - 3 R12_r1 - 3 L12_r2 + 2 S13_r1 >= - 6
0 L6_r1 - 1 R13_r1 + 0 L13_r2 + 1 L5_r1 - 1 R12_r1 - 1 L12_r2 + 1 S13_r1 >= - 2
0 L6_r1 + 0 R13_r1 + 1 L13_r2 + 1 L5_r1 - 1 R12_r1 + 1 L12_r2 + 1 S13_r1 >= 0
-1 L6_r1 - 1 R13_r1 - 1 L13_r2 - 3 L5_r1 + 3 R12_r1 - 3 L12_r2 + 2 S13_r1 >= - 6
-1 L6_r1 + 0 R13_r1 + 0 L13_r2 - 1 L5_r1 - 1 R12_r1 + 1 L12_r2 + 1 S13_r1 >= - 2
1 L6_r1 + 1 R13_r1 + 1 L13_r2 - 3 L5_r1 + 3 R12_r1 + 3 L12_r2 + 2 S13_r1 >= 0
-1 L7_r1 + 1 R14_r1 + 0 L14_r2 + 0 L6_r1 + 0 R13_r1 + 0 L13_r2 + 1 S14_r1 >= 0
0 L7_r1 - 1 R14_r1 + 1 L14_r2 + 0 L6_r1 + 0 R13_r1 + 0 L13_r2 + 1 S14_r1 >= 0
1 L7_r1 + 0 R14_r1 - 1 L14_r2 + 0 L6_r1 + 0 R13_r1 + 0 L13_r2 + 1 S14_r1 >= 0
1 L7_r1 + 1 R14_r1 + 1 L14_r2 + 0 L6_r1 + 0 R13_r1 + 0 L13_r2 - 1 S14_r1 >= 0
-1 L7_r1 - 1 R14_r1 - 1 L14_r2 + 0 L6_r1 + 0 R13_r1 + 0 L13_r2 - 1 S14_r1 >= - 3
0 L7_r1 + 0 R14_r1 + 1 L14_r2 + 1 L6_r1 + 1 R13_r1 - 1 L13_r2 + 1 S14_r1 >= 0
-1 L7_r1 - 1 R14_r1 - 1 L14_r2 + 3 L6_r1 + 3 R13_r1 + 3 L13_r2 + 2 S14_r1 >= 0
1 L7_r1 + 1 R14_r1 + 1 L14_r2 - 3 L6_r1 - 3 R13_r1 - 3 L13_r2 + 2 S14_r1 >= - 6
0 L7_r1 - 1 R14_r1 + 0 L14_r2 + 1 L6_r1 - 1 R13_r1 - 1 L13_r2 + 1 S14_r1 >= - 2
0 L7_r1 + 0 R14_r1 + 1 L14_r2 + 1 L6_r1 - 1 R13_r1 + 1 L13_r2 + 1 S14_r1 >= 0
-1 L7_r1 - 1 R14_r1 - 1 L14_r2 - 3 L6_r1 + 3 R13_r1 - 3 L13_r2 + 2 S14_r1 >= - 6
-1 L7_r1 + 0 R14_r1 + 0 L14_r2 - 1 L6_r1 - 1 R13_r1 + 1 L13_r2 + 1 S14_r1 >= - 2
1 L7_r1 + 1 R14_r1 + 1 L14_r2 - 3 L6_r1 + 3 R13_r1 + 3 L13_r2 + 2 S14_r1 >= 0
-1 L8_r1 + 1 R15_r1 + 0 L15_r2 + 0 L7_r1 + 0 R14_r1 + 0 L14_r2 + 1 S15_r1 >= 0
0 L8_r1 - 1 R15_r1 + 1 L15_r2 + 0 L7_r1 + 0 R14_r1 + 0 L14_r2 + 1 S15_r1 >= 0
1 L8_r1 + 0 R15_r1 - 1 L15_r2 + 0 L7_r1 + 0 R14_r1 + 0 L14_r2 + 1 S15_r1 >= 0
1 L8_r1 + 1 R15_r1 + 1 L15_r2 + 0 L7_r1 + 0 R14_r1 + 0 L14_r2 - 1 S15_r1 >= 0
-1 L8_r1 - 1 R15_r1 - 1 L15_r2 + 0 L7_r1 + 0 R14_r1 + 0 L14_r2 - 1 S15_r1 >= - 3
0 L8_r1 + 0 R15_r1 + 1 L15_r2 + 1 L7_r1 + 1 R14_r1 - 1 L14_r2 + 1 S15_r1 >= 0
-1 L8_r1 - 1 R15_r1 - 1 L15_r2 + 3 L7_r1 + 3 R14_r1 + 3 L14_r2 + 2 S15_r1 >= 0
1 L8_r1 + 1 R15_r1 + 1 L15_r2 - 3 L7_r1 - 3 R14_r1 - 3 L14_r2 + 2 S15_r1 >= - 6
0 L8_r1 - 1 R15_r1 + 0 L15_r2 + 1 L7_r1 - 1 R14_r1 - 1 L14_r2 + 1 S15_r1 >= - 2
0 L8_r1 + 0 R15_r1 + 1 L15_r2 + 1 L7_r1 - 1 R14_r1 + 1 L14_r2 + 1 S15_r1 >= 0
-1 L8_r1 - 1 R15_r1 - 1 L15_r2 - 3 L7_r1 + 3 R14_r1 - 3 L14_r2 + 2 S15_r1 >= - 6
-1 L8_r1 + 0 R15_r1 + 0 L15_r2 - 1 L7_r1 - 1 R14_r1 + 1 L14_r2 + 1 S15_r1 >= - 2
1 L8_r1 + 1 R15_r1 + 1 L15_r2 - 3 L7_r1 + 3 R14_r1 + 3 L14_r2 + 2 S15_r1 >= 0
R2_r1 + L0_r2 + R0_r2 <= 2
R2_r1 + L0_r2 + R0_r2 - 2 xor_dummy0_R2_r1_L0_r2_R0_r2 >= 0
xor_dummy0_R2_r1_L0_r2_R0_r2 - R2_r1 >= 0
xor_dummy0_R2_r1_L0_r2_R0_r2 - L0_r2 >= 0
xor_dummy0_R2_r1_L0_r2_R0_r2 - R0_r2 >= 0
R3_r1 + L1_r2 + R1_r2 <= 2
R3_r1 + L1_r2 + R1_r2 - 2 xor_dummy1_R3_r1_L1_r2_R1_r2 >= 0
xor_dummy1_R3_r1_L1_r2_R1_r2 - R3_r1 >= 0
xor_dummy1_R3_r1_L1_r2_R1_r2 - L1_r2 >= 0
xor_dummy1_R3_r1_L1_r2_R1_r2 - R1_r2 >= 0
R4_r1 + L2_r2 + R2_r2 <= 2
R4_r1 + L2_r2 + R2_r2 - 2 xor_dummy2_R4_r1_L2_r2_R2_r2 >= 0
xor_dummy2_R4_r1_L2_r2_R2_r2 - R4_r1 >= 0
xor_dummy2_R4_r1_L2_r2_R2_r2 - L2_r2 >= 0
xor_dummy2_R4_r1_L2_r2_R2_r2 - R2_r2 >= 0
R5_r1 + L3_r2 + R3_r2 <= 2
R5_r1 + L3_r2 + R3_r2 - 2 xor_dummy3_R5_r1_L3_r2_R3_r2 >= 0
xor_dummy3_R5_r1_L3_r2_R3_r2 - R5_r1 >= 0
xor_dummy3_R5_r1_L3_r2_R3_r2 - L3_r2 >= 0
xor_dummy3_R5_r1_L3_r2_R3_r2 - R3_r2 >= 0
R6_r1 + L4_r2 + R4_r2 <= 2
R6_r1 + L4_r2 + R4_r2 - 2 xor_dummy4_R6_r1_L4_r2_R4_r2 >= 0
xor_dummy4_R6_r1_L4_r2_R4_r2 - R6_r1 >= 0
xor_dummy4_R6_r1_L4_r2_R4_r2 - L4_r2 >= 0
xor_dummy4_R6_r1_L4_r2_R4_r2 - R4_r2 >= 0
R7_r1 + L5_r2 + R5_r2 <= 2
R7_r1 + L5_r2 + R5_r2 - 2 xor_dummy5_R7_r1_L5_r2_R5_r2 >= 0
xor_dummy5_R7_r1_L5_r2_R5_r2 - R7_r1 >= 0
xor_dummy5_R7_r1_L5_r2_R5_r2 - L5_r2 >= 0
xor_dummy5_R7_r1_L5_r2_R5_r2 - R5_r2 >= 0
R8_r1 + L6_r2 + R6_r2 <= 2
R8_r1 + L6_r2 + R6_r2 - 2 xor_dummy6_R8_r1_L6_r2_R6_r2 >= 0
xor_dummy6_R8_r1_L6_r2_R6_r2 - R8_r1 >= 0
xor_dummy6_R8_r1_L6_r2_R6_r2 - L6_r2 >= 0
xor_dummy6_R8_r1_L6_r2_R6_r2 - R6_r2 >= 0
R9_r1 + L7_r2 + R7_r2 <= 2
R9_r1 + L7_r2 + R7_r2 - 2 xor_dummy7_R9_r1_L7_r2_R7_r2 >= 0
xor_dummy7_R9_r1_L7_r2_R7_r2 - R9_r1 >= 0
xor_dummy7_R9_r1_L7_r2_R7_r2 - L7_r2 >= 0
xor_dummy7_R9_r1_L7_r2_R7_r2 - R7_r2 >= 0
R10_r1 + L8_r2 + R8_r2 <= 2
R10_r1 + L8_r2 + R8_r2 - 2 xor_dummy8_R10_r1_L8_r2_R8_r2 >= 0
xor_dummy8_R10_r1_L8_r2_R8_r2 - R10_r1 >= 0
xor_dummy8_R10_r1_L8_r2_R8_r2 - L8_r2 >= 0
xor_dummy8_R10_r1_L8_r2_R8_r2 - R8_r2 >= 0
R11_r1 + L9_r2 + R9_r2 <= 2
R11_r1 + L9_r2 + R9_r2 - 2 xor_dummy9_R11_r1_L9_r2_R9_r2 >= 0
xor_dummy9_R11_r1_L9_r2_R9_r2 - R11_r1 >= 0
xor_dummy9_R11_r1_L9_r2_R9_r2 - L9_r2 >= 0
xor_dummy9_R11_r1_L9_r2_R9_r2 - R9_r2 >= 0
R12_r1 + L10_r2 + R10_r2 <= 2
R12_r1 + L10_r2 + R10_r2 - 2 xor_dummy10_R12_r1_L10_r2_R10_r2 >= 0
xor_dummy10_R12_r1_L10_r2_R10_r2 - R12_r1 >= 0
xor_dummy10_R12_r1_L10_r2_R10_r2 - L10_r2 >= 0
xor_dummy10_R12_r1_L10_r2_R10_r2 - R10_r2 >= 0
R13_r1 + L11_r2 + R11_r2 <= 2
R13_r1 + L11_r2 + R11_r2 - 2 xor_dummy11_R13_r1_L11_r2_R11_r2 >= 0
xor_dummy11_R13_r1_L11_r2_R11_r2 - R13_r1 >= 0
xor_dummy11_R13_r1_L11_r2_R11_r2 - L11_r2 >= 0
xor_dummy11_R13_r1_L11_r2_R11_r2 - R11_r2 >= 0
R14_r1 + L12_r2 + R12_r2 <= 2
R14_r1 + L12_r2 + R12_r2 - 2 xor_dummy12_R14_r1_L12_r2_R12_r2 >= 0
xor_dummy12_R14_r1_L12_r2_R12_r2 - R14_r1 >= 0
xor_dummy12_R14_r1_L12_r2_R12_r2 - L12_r2 >= 0
xor_dummy12_R14_r1_L12_r2_R12_r2 - R12_r2 >= 0
R15_r1 + L13_r2 + R13_r2 <= 2
R15_r1 + L13_r2 + R13_r2 - 2 xor_dummy13_R15_r1_L13_r2_R13_r2 >= 0
xor_dummy13_R15_r1_L13_r2_R13_r2 - R15_r1 >= 0
xor_dummy13_R15_r1_L13_r2_R13_r2 - L13_r2 >= 0
xor_dummy13_R15_r1_L13_r2_R13_r2 - R13_r2 >= 0
R0_r1 + L14_r2 + R14_r2 <= 2
R0_r1 + L14_r2 + R14_r2 - 2 xor_dummy14_R0_r1_L14_r2_R14_r2 >= 0
xor_dummy14_R0_r1_L14_r2_R14_r2 - R0_r1 >= 0
xor_dummy14_R0_r1_L14_r2_R14_r2 - L14_r2 >= 0
xor_dummy14_R0_r1_L14_r2_R14_r2 - R14_r2 >= 0
R1_r1 + L15_r2 + R15_r2 <= 2
R1_r1 + L15_r2 + R15_r2 - 2 xor_dummy15_R1_r1_L15_r2_R15_r2 >= 0
xor_dummy15_R1_r1_L15_r2_R15_r2 - R1_r1 >= 0
xor_dummy15_R1_r1_L15_r2_R15_r2 - L15_r2 >= 0
xor_dummy15_R1_r1_L15_r2_R15_r2 - R15_r2 >= 0
L0_r1 + L1_r1 + L2_r1 + L3_r1 + L4_r1 + L5_r1 + L6_r1 + L7_r1 + L8_r1 + L9_r1 + L10_r1 + L11_r1 + L12_r1 + L13_r1 + L14_r1 + L15_r1 + R0_r1 + R1_r1 + R2_r1 + R3_r1 + R4_r1 + R5_r1 + R6_r1 + R7_r1 + R8_r1 + R9_r1 + R10_r1 + R11_r1 + R12_r1 + R13_r1 + R14_r1 + R15_r1 >= 1
S1_r1 + S2_r1 + S3_r1 + S4_r1 + S5_r1 + S6_r1 + S7_r1 + S8_r1 + S9_r1 + S10_r1 + S11_r1 + S12_r1 + S13_r1 + S14_r1 + S15_r1 - xobj = 0
S1_r1 + S2_r1 + S3_r1 + S4_r1 + S5_r1 + S6_r1 + S7_r1 + S8_r1 + S9_r1 + S10_r1 + S11_r1 + S12_r1 + S13_r1 + S14_r1 + S15_r1 - xobj <= -30


Generals
xobj


Binary
L15_r2
L7_r2
R11_r2
R2_r1
S6_r1
R9_r2
R13_r2
R8_r1
L5_r1
L2_r2
xor_dummy14_R0_r1_L14_r2_R14_r2
S1_r1
L13_r1
xor_dummy15_R1_r1_L15_r2_R15_r2
R8_r2
S9_r1
L3_r2
xor_dummy13_R15_r1_L13_r2_R13_r2
L11_r1
L15_r1
xor_dummy4_R6_r1_L4_r2_R4_r2
R15_r2
L2_r1
L14_r1
R14_r1
S2_r1
L11_r2
R12_r1
L10_r1
S11_r1
L13_r2
L9_r2
L3_r1
S14_r1
R5_r1
L7_r1
xor_dummy0_R2_r1_L0_r2_R0_r2
R9_r1
R14_r2
L8_r1
R5_r2
L8_r2
xor_dummy9_R11_r1_L9_r2_R9_r2
xor_dummy8_R10_r1_L8_r2_R8_r2
L12_r1
L1_r1
L6_r1
R3_r2
S8_r1
L0_r1
R1_r2
R2_r2
xor_dummy10_R12_r1_L10_r2_R10_r2
L4_r2
xor_dummy3_R5_r1_L3_r2_R3_r2
R10_r1
xor_dummy0_L8_r1_R15_r1_L15_r2
R7_r2
xor_dummy11_R13_r1_L11_r2_R11_r2
L9_r1
xor_dummy7_R9_r1_L7_r2_R7_r2
L1_r2
R4_r2
L4_r1
L10_r2
R10_r2
R0_r1
R6_r2
L6_r2
xor_dummy5_R7_r1_L5_r2_R5_r2
R15_r1
L5_r2
xor_dummy1_R3_r1_L1_r2_R1_r2
xor_dummy2_R4_r1_L2_r2_R2_r2
xor_dummy12_R14_r1_L12_r2_R12_r2
S5_r1
S4_r1
R1_r1
S12_r1
R13_r1
L0_r2
R12_r2
xor_dummy6_R8_r1_L6_r2_R6_r2
S3_r1
S10_r1
R11_r1
R6_r1
S13_r1
S15_r1
R0_r2
R3_r1
L12_r2
R7_r1
R4_r1
L14_r2
S7_r1
